(set-logic ALL)
(declare-const BAV1 Bool)
(declare-const BAV2 Bool)
(declare-const BAV3 Bool)
(declare-const BAV4 Bool)
(declare-const GEN5 Int)
(declare-const GEN4 Int)
(declare-const GEN3 Int)
(declare-const GEN2 Int)
(declare-const GEN1 Int)
(declare-fun x () Real)
(declare-fun y () Real)
(declare-fun z () Real)
(assert (and (= (- (- (* GEN1 (* x x)) (* y y)) (* z z)) GEN2) (= (- (+ (* x z) (* z y)) (* GEN3 x)) GEN4) (= (- (* z z) y) GEN5)))
(eliminate-quantifiers (exists z))
(exit)
(assert (= BAV1 (and (= (- (- (* GEN1 (* x x)) (* y y)) (* z z)) GEN2) (= (- (+ (* x z) (* z y)) (* GEN3 x)) GEN4) (= (- (* z z) y) GEN5))))
(assert (= BAV2 (= (- (- (* GEN1 (* x x)) (* y y)) (* z z)) GEN2)))
(assert (= BAV3 (= (- (+ (* x z) (* z y)) (* GEN3 x)) GEN4)))
(assert (= BAV4 (= (- (* z z) y) GEN5)))